
 102   30
  10   10   10   10   10   10   10   10   10   10   10   10   10   10   10   10   10   10   10   10   10   10   10   10   10   10   10   10   10   10

   0   0   0   0   0   0   0   0   0   0   0   0   0   0   0   0   0   0   0   0   0   0   0   0   0   0   0   0   0   0   0  26 2 3 4 5 6 7 8 9 10 11 12 13 14 15 16 17 18 19 20 21 24 26 27 30 31 45 
  10   0   0   0   0   1   0   0   0   0   0   0   0   1   0   0   0   0   0   0   0   0   0   0   0   0   0   0   0   0   0  21 80 79 75 69 64 62 59 56 55 53 52 51 48 47 43 42 41 38 34 29 25 
   7   0   0   0   1   7   0   0   0   0   0   0   0   0   2   0   0   3   0   0   0   0   0   0   0   0   0   0   0   0   0  13 99 76 74 68 63 57 52 46 43 38 33 28 23 
  10   0   0   0   0   0   0   2   3   0   0   0   0   0   0   0   0   0   0   3   0   0   0   0   0   0   0   0   0   0   1  21 101 99 81 80 76 75 63 59 58 56 54 53 52 49 48 47 43 38 36 34 32 
   5   0   0   0   0   0   0   0   0   0   0   0   0   0   0   0   0   4   0   0   0   0   0   0   0   0   0   0   0   0   0  13 81 79 77 69 53 52 51 49 47 44 35 25 22 
   9   0   1   0   0   0   0   0   0   0   0   0   0   0   0   0   0   4   1   0   0   4   0   0   0   0   0   0   0   0   0  19 101 79 75 66 65 62 61 59 58 56 55 54 52 51 49 47 36 34 29 
   7   0   0   1   0   0   0   0   9   0   0   0   0   0   0   0   5   0   0   0   0   0   0   0   0   0   0   0   0   0   0  16 99 79 76 75 68 63 62 58 57 56 50 47 46 43 38 34 
   6   0   0   0   0   0   0   0   0   0   0   0   1   0   0   0   0   0   2   0   0   9   0   0   2   0   2   0   0   0   0  16 79 75 73 71 68 65 63 62 61 58 56 55 54 51 38 29 
   2   0   0   0   0   9   0   0   0   0   0   0   0   0   0   0   0   0   0   0   1   0   0   1   0   0   7   0   0   1   0  15 101 99 80 76 75 74 69 68 62 57 47 44 43 37 36 
   4   0   7   0   0   0   0   0   0   0   0   0   0   0   0   0   6   0   0   0   0   6   0   0   0   0   0   0   1   0   4  17 99 95 79 78 76 75 74 67 66 58 57 56 53 52 47 46 36 
   1   0   6   0   0   0   0   2   0   2   0   0   0   0   0   0   0   0   0   0   0   4   0   0   0   0   0   0   0   0   0  21 101 100 99 98 96 80 79 78 77 75 72 71 67 63 62 58 53 52 50 41 40 
   7   0   0   0   0   0   0   0   0   6   0   0   0   0   0   0   4   0   0   0   7   0   0   3   0   0   0   0   0   0   0  19 100 99 97 80 79 76 74 72 69 64 63 62 60 57 56 51 47 43 38 
   6   0   0   0   0   0   0   0   0   0   0   0   0   0   7   0   0   4   0   0   0   4   0   0  10   0   0   0   0   0   0  15 100 99 80 76 75 71 68 66 65 63 62 56 54 36 34 
   1   0   0   0   0   5   0   0   0   0   0   0   3   0   0   0   0   0   0   0   0   0   0   0   0   0   0   4   4   7   5  17 101 100 99 95 81 80 74 72 71 69 66 65 63 61 53 38 36 
   9   0   0   0   0   0   1   0   0   0   0   0   0   0   0   0   0   0   0   0   0   0   0   0   0   0   4   0   0   0   0  15 101 79 78 75 74 71 68 66 62 58 57 56 50 42 38 
   7   0   0   5   0   0   0   0   5   5   1   0   0   0   0   0   0   5   0   0   0   0   0   0   0   0   0   0   0   0   0  21 101 100 99 98 96 94 81 80 79 78 77 75 74 73 72 71 57 56 51 50 44 
   8   0   0   0   9   0   0   0   0   4   0   0   7   0   0   0   0  10   0   0   0   0   0   0   0   0   0   0   0   0   0  19 100 99 98 96 93 80 79 78 76 75 66 62 60 59 54 53 52 51 48 
   5   0   0   0   0   0   0   0   6   0  10   0   8   0   4   0   0   0   0   0   0   0   0   0   0   1   0   0   0   0   1  16 100 97 92 79 77 72 71 69 68 66 62 61 57 51 50 35 
   8   0   0   0   0   0   0   0   0   0   0   0   0   0   0   0   0   0   0   0   0   0   0   0   4   0   0   0   0   0   0  10 100 95 78 71 67 63 53 44 39 36 
   2   0   0   0   8   0   0   0   0   6   0   0   0   0   0   0   0   0   8   6   0   0   0   0   0   0   8   0   0   0   0  18 101 99 98 96 94 77 75 74 70 68 67 62 61 60 58 57 55 48 
   6   0   0   0   0   0   0   8   0   0   0   0   0   0   0   0   4   0   0   7   0   0   0   0   0   4   0   0   0   0   0  13 99 95 80 75 74 66 64 63 61 60 57 48 38 
   5   0   0   2   0   0   0   0   0   0   0   0   6   0   0   1   0   0   0   0   8   0   0   0   0   0   0   0   0   0   0  18 100 97 96 94 80 74 73 72 71 68 66 63 62 61 58 56 54 50 
  10   0   0   0   0   0   0   0   7   0   0   2   0   0   0   5   0   0   7  10   0   0   1   0   0   0   0   0   0   0   0  11 94 93 79 75 62 61 58 56 54 49 36 
   9   0   0   0   7   0   0   0   0   0   0   0   0   0  10   0   0   0   0   0   2   0   0   0   0   0   0   0   0   6   0  10 100 96 92 79 75 63 62 50 47 34 
   7   0   0   6   0   0   0   0   0   0   0   0   0   0   0   0   0   0   0   0   0   0   7   0   6   0   0   0   0   0   9  17 101 98 95 94 93 76 73 72 71 67 66 63 61 60 58 57 54 
   6   0   5   0   0   0   0   0   0   0   0   0   0   0   0   0   0   0   0   0   0   0   0   0   0   0   0   0   0   0   0  16 101 100 99 98 97 95 93 90 78 72 66 63 61 59 53 47 
   7   0   0   6   0   0   0   0   0   0   0   0   6   0   7   6   0   7   6   0   0   0   0   0   0   0   5   0   0   0   0  14 94 93 86 75 72 71 70 65 63 62 61 60 57 53 
   4   0   0   0   0   0   0   0   0   0   0   0   0   6   0   0   0   0   0   0   0   0   7   0   0   0   0   0   0   5   0  13 101 100 95 94 93 90 79 78 75 66 61 53 47 
   9   0   0   0   0   0   0   0   0   0   0   0   8   0   6   0   0   0   0   0   0   0   0  10   0   0   0   0   9   0   0  14 100 99 98 97 96 94 88 78 76 74 72 67 57 50 
   3   0   7   0   6   0   0   0   0   0   0   0   0   0   7   0   0   0   0   0   0   5   0   0   0   0   0   0   0   0   0  13 97 94 92 91 80 75 71 70 63 62 60 58 56 
   8   0   0   0   6   0   0   0   5   0   0   0   0   0   3   0   0   0   8   0   0   0   0   0   0   0   0   0   6   0   7  14 99 96 94 88 87 86 85 83 74 73 72 71 70 62 
   4   0   0   0  10   0   0   0   0   0   0   0   0   0   0   0   0   0   0   0   0   0   0   0   0   0   6   0   0   0   0  11 98 93 87 79 73 72 70 66 62 61 51 
   6   0   0   6   0   0   0   7   0   9   0   0   0   0   0   0   0   0   0   0   0   0   0   0  10   0   0   0   0   0   0  15 101 100 96 93 92 91 89 88 86 85 83 80 75 71 70 
   5   0   0   0   0   0   0   0   0   0   0   0   0   0   0   0   0   0   0   0   0   0   0   0   0   0   0   0   0   0   0  12 97 95 94 89 88 86 82 78 74 72 70 60 
  10   0   0   0   0   0   0   0   0   0   0   0   0   3   8   0  10   0   0   3   0   0   0   8   0   0   0   0   0   0   0  12 101 99 96 94 88 86 85 76 75 74 70 60 
   6   0   0   0   2   0   0   0   0   0   0   0   0   0   0   6   0   0   0   4   0   0  10   0   0   0   0   0   0   0   0   7 97 96 88 77 73 64 50 
   9   0   0   0   0   0   4   0   0   0   0   0   0  10   0   0   4   0   0   4   0   0   0   0   6   0   0   0   0   0   0   7 92 88 79 70 60 58 52 
  10   0   0   7   0   0   0   0   0   0   0   0   0   0   0   0  10   0   0   0   0   0   0   0   0   0   0   0   0   0   0  12 98 96 94 92 90 89 87 86 85 77 70 67 
   7   0   0   0   0   0   0   0   0   0   6   0   0   0   0   0   0   0   9   0   0   0   0   0   0   0   0   0   0   0   0   9 99 97 94 90 89 87 74 66 61 
   6   0   0   0   0   0   8   0   0   0   0   4   0   0   0   0   0   0   0   0   0   0   0   0   0   0   7   0   6  10   6   7 97 91 85 76 70 66 56 
   5   4   0   0   0   0   0  10   0   0   0   0   3   0   0   0   0  10   0  10   0   0   0   0   0   7   4   0   0   0   9  12 95 94 93 90 88 87 86 85 84 83 76 73 
   7   0   0   0   0   0   0   0   0   0   0   0   0   0   0   0   0   0   0   0   0   3   0   5   0   0   0   7   0   0   0   8 99 91 90 87 76 73 70 61 
   5   0   0   0   0   0   0   0  10   0   0   0   0   0   0   0   0   0   0   0   0   0   0   0   0   0   0   0  10   0   0   7 98 90 89 87 70 66 61 
  10   0   0   0   0   0   0   0   8   0   0   0   0   0   0   0   7   0   0   0   0   8   0   7   0   0   0   0   0   0   0   8 97 92 89 86 85 82 70 60 
  10   0   0   0   0   0   0   0   0   0   0   0   0   0   0   0   0   0   0   0   0   0   0   0   0   0   0   0   0   7   0   7 93 91 90 88 86 84 53 
   7   0   0   0   0   0   0   0   0   0   0   0   0   0   0   0   0   0   0   0   0   0   0   0   0   0  10   0   0   0   0  10 101 100 98 90 89 87 86 85 83 72 
   8   0   0   0   3   0   0   0   7   0   0   0   0   0   0   0   0   0   7   0   0   0   0   0   0   0   0  10   0   0   0   7 89 88 87 86 83 71 70 
   9   2   0   0   0   0   0   0   0   0   0   0   0   0   0   0   0   0   0   0   0   0   0   0   0   0   0   0   0   0  10   6 97 88 85 84 72 71 
   9   0   5   7   6   0   0   0   0   0   0   0   0   0   0   9   0   0   0   0   0   0   7   0   4   0   5   0   0   0   8   6 87 86 85 82 78 70 
   6   0   0   0   7   0   0   0   0   0   0   0   0   0   0   0   0   0   0   0   0   0   0   5   0   0   0   7   0   0   7   4 89 86 85 60 
   4   0   0   0   5   0   0   0   0   0   0   0   0   0   0   0   0   0   0   0   0   0   0   4   0   0   0   0   0   0   0   6 95 89 88 86 85 84 
   5   0   0   0   8   7   0   0   0   0   0   0   0   0   0   0   0   0   0   3  10   0   0   0   0   0   0   0   0   0   0   6 94 91 89 86 84 82 
   3   0   0   0   5   0   0   3   0   0   0   0   0   0   6   0   0   0   0   0   0   0   0   0   0   0   0   0   0   0   0   4 85 83 82 73 
   8   0   0   0   0   0   0   0   0   0   0   0   0   0   0   0   0   6   9   0   0   0   0   0   0   0   0   0   0  10   0   4 85 83 82 70 
   3   0   0   0   0   0   0   0   7   0   0   0   0   9   0   0   0   0   0   6   0   0   0   0   0   0   0   0   0   0   0   4 90 88 84 76 
   2   0   0   9   0   0   0   0   0   0   0   0   0   0   0   5   0   9   7   0   0   0   0   0   0   0   4   2   0   0   0   4 90 89 87 83 
   8   0   0   0   5   0   0   0   0   0   6   0   6   0   0   0   0   0   0   0   0   0   4   0   6   0   0   0   0   0   0   4 90 87 85 83 
   5   0   0   0   0   0   0   0   0   0   0   0   0   0   0   0   0   0   0   0   0   0   0   0   0   0   4   0   0   0   0   4 86 85 84 83 
   6   0   0   0   0   0   0   0   0   0   0   7   5   0   0   0   0   0   6   0   0   0   0   0   6   0   0   0   0   0   0   4 91 88 86 82 
   2   0   0   0   0   0   0   0   0   4   0   0   0   0   0   0   0   0   2   0   0   0   0   0   0   0   0   0   0   0   0   3 90 87 83 
   3   0   0   0   0   0   7   0   0   0   0   0   0   6   0   0   0   0   0   0   0   0   0   0   0   0   5   6   0   0   0   3 85 83 82 
   9   5   0   0   0   0   0   0   0   5   8   0  10   0   0   0   0   0   0   0   0   0   0   0   0   0   0   0   0   0   0   3 95 89 84 
  10   5   0   0   4   0   0   0   0   7   0   0   4   0   0   0   0   0   8   6   0   0   0   0   0   0   0   0   0   0   0   3 89 88 82 
   5   0   0   0   0   0   0   0   0   0   0   0   0   0   0   0   0   0   0   0   0   0   0   0   0   0   0   0   0   0   0   3 98 83 82 
   7   0   0   0   0   0   6   4   0   0   0   9   0   0   0   0   0   0   0   0   0   4   0   0   0   0   0   0   7   0   0   3 96 88 83 
   1   0   0   0   7   0   0   0   0   0   0   0   0   0   6   0   3   0   0   0   0   0   0   0   0   0  10   0   0   0   0   2 88 86 
   6   0   0   9   0   0   0   0   0  10   0   0   7   0   0   0   0   0   0   4   0   0   0   0   0   7   0   0   0   0   7   2 91 84 
   8   0   0   9   0   4   9   0   0   0   0   0   0   0   0   0   0   0   2   0   0   0   0   0   0   0   0   0   0   0   0   2 84 83 
   8  10   0   0   0   4   0   0   0   0   0  10   0   0   0   0   0   0   0   0   0   0   0   0   0   7   0   0   0   0   0   2 90 87 
   6   0   0   5   0   0   0   0   0   0   0   6   0   9   0   0   0   9   0   0   0   0   0   5   0   0   0   0   0   9   0   1 84 
   9   0   0   0   0   0   0   0   9   0   0   0   0   0   0   0   0   0   5   0   0   0   0   8   0   0   0   0   0   0   7   1 82 
  10   0   6   0   0   7   0   0   0   0   0   0   0   6   0   0   0   3   0   0   0   0   0   0   0   0   0   0   0   0   0   1 91 
   4   0   0   0   7   5   0   0   0  10   0   8   0   0   0   0   0   0   0   0   0   0   0   0   0   0   6   0   0   0   0   1 92 
  10   0   0   0   0   0   0   0   0   0   6   0   0   0   0   0   0   0   0   9   0   3   0   0   0   4   0   0   7   0   0   1 93 
   3   5   0   0   0   0   0   0   0   0   5   0   0   0   0   0   0   4   5   0   0   0   0   4   0   0   0   0   0   0   0   1 87 
   8   0   0   0   0   0   0   0   0   0   0   0   0   0   8   0   0   0   6   0   0   0   0   0   0   0   0   0   0   0   0   1 82 
   4   0   0   0   0   0   0   0   0   0   0   0   0   0   0   0   0   0   0   0   0   0   0   0   0   0   0   0   5   2   0   1 82 
   7   9   5   0   0   0   6   0   0   0   0   0   0   0   0   0   0   0   0   0   0   0   0   0   0   0   0   0   0   0   0   1 91 
   2   0   6   0   0   7   4   0   0   0   7   0   0   0   4   0   0   0   0   0   0   8   5   0   0   0   0   0   6   9   0   1 89 
  10   0   0   0   0   0   0   0   0   0   0   7   0   4   0   0   0   0   0   0   0   0   0   0   0   0   0   0   0   0   0   1 84 
   6   0   0   0   0   0   0   0   0   4   0   6   0   0   5   0   0   0   0   6   0  10   0   4   0   6   0   0   0   0   0   1 88 
   6   0   0   0   0   0  10   0   0   6   0   0   0   0   0   8   0   0   0   0   6   0   0   0   0   0   0   0   0   6   0   1 102
   9   0   0   0   0   0   0   0   0   0   0   0   0   0   5   0   0   0   0   0   0   5   0   0   0   0   9   0   0   0   0   1 102
   8   6   0   0   0   0   5   7   0   0   0   9   0   0   0   0   5   0   0   0   0   0   0   0   0   0   0   0   0   0   0   1 102
   2   0   0   0   0   0   0   0   0   0   0   0   0   0   0   0   8   0   0   0   0   7   0   0   0   0   0   0   0   0   0   1 102
   1   0  10   0   0   0   7   0   0   0   0   0   0   0   0   0   0   0   8   7   0   0   0   0   0   0   0   0   0   0   0   1 102
   1   0   8   0   0   0   0   0   1   8   0   0   0   0   0   0   0   0   0   0   0   0   0   0   0   0   0   6   0   0   6   1 102
   3   0   0   0   0   6   0   0   0   0   0   1   5   0   0   0   0   0   0   0   0   0   6   0   0   0   0   0   0   0   0   1 102
   4   0   0   0   0  10   0   0   0   0   0   0  10   0   0   0   0   0   0   0   0   0   0   0   0   0   0   6   0   0   0   1 102
  10   0   0   0   0   0   0   6   0   0   0   0   0   0   0   0   0   0   0   0   0   0   0   0   0   8   0   0   5   0   0   1 102
   8   7   0   0   9   0   5   0   0   0   0   0   0   0   0   0   0   0   0   0   0   0   0   6   0   0   0   0   0   0   0   1 102
  10   0   0   0   0   0   0   6   0   0   0   0   7   0   0   0   0   0   0   0   0   0   0   0   0   0   0   0   0   0   0   1 102
   6   8   0   0   0   0   0   0   3   0   5   0   6   0   0   8   0   0   0   0   0   0   0   7   0   0   0   0   0   0   4   1 102
   2   0   0   0   0   6   0   8   0   0   0   0   0   0   4   0   0   0   0   0   0   0   7   0   0   0   0   0   0   6   0   1 102
   8   0   0   0   5   0   5   0   2   0   0   0   0   0   0   0   0   0   0   0   0   0   0   0   0   0   0   0   0   0   0   1 102
   9   0   0   0   0   6   0   0   0   0   0   0   0   0   0   0   0   0   0   9   0   0   0  10   0   0   0   0   0   5   0   1 102
   8   0   0   0   0   0   7   0   0   4   0   0   0   0   0   0   0   0   0   0   0   7   0   9   0   0   0   0   0   6   0   1 102
   1   0   0   0   0   0   0   0   0   0   0   0   0   0   0   0   0   0   8   5   8   0   0   0   0   0   0   0   0   4   0   1 102
   6   0   0   0   0   0   0   9   0   0   6   0   0   0   0   0   0   0   0   0   0   0   0   0   0   0   0   0   0   0   0   1 102
  10   5   0   0   0   0   0   0   8   0   0   0   0   0   0   0   0   0   0   0   0   9   0   0   0  10   0   0   0   3   0   1 102
   3   0   0   0   0   0   0   0   0   0   0   3   0   0  10   0   0   0   0   0   0   0   0   0   0   0   0   0   0   0   5   1 102
   0   0   0   0   0   0   0   0   0   0   0   0   0   0   0   0   0   0   0   0   0   0   0   0   0   0   0   0   0   0   0   0 
